
Gurobi 8.1.1 (win64, Python) logging started 12/16/20 17:33:29


Gurobi 8.1.1 (win64, Python) logging started 12/16/20 17:43:00


Gurobi 8.1.1 (win64, Python) logging started 12/16/20 17:43:30

Academic license - for non-commercial use only
Changed value of parameter lazyConstraints to 1
   Prev: 0  Min: 0  Max: 1  Default: 0
Optimize a model with 2304 rows, 2256 columns and 6768 nonzeros
Variable types: 0 continuous, 2256 integer (2256 binary)
Coefficient statistics:
  Matrix range     [1e+00, 1e+00]
  Objective range  [6e-01, 5e+01]
  Bounds range     [1e+00, 1e+00]
  RHS range        [2e+00, 2e+00]
Presolve removed 2256 rows and 1128 columns
Presolve time: 0.04s
Presolved: 48 rows, 1128 columns, 2256 nonzeros
Variable types: 0 continuous, 1128 integer (1128 binary)

Root relaxation: objective 3.223715e+02, 72 iterations, 0.02 seconds

    Nodes    |    Current Node    |     Objective Bounds      |     Work
 Expl Unexpl |  Obj  Depth IntInf | Incumbent    BestBd   Gap | It/Node Time

     0     0  322.37153    0   12          -  322.37153      -     -    0s
     0     0  326.22035    0   18          -  326.22035      -     -    0s
     0     0  331.56424    0   16          -  331.56424      -     -    0s
     0     0  332.99363    0   37          -  332.99363      -     -    0s
     0     0  333.37575    0   10          -  333.37575      -     -    0s
     0     0  333.64369    0   27          -  333.64369      -     -    0s
     0     2  341.87663    0   15          -  341.87663      -     -    0s
*   21     2               4     353.2844080  344.15644  2.58%   5.7    0s
*   24     2               3     350.8980740  346.20617  1.34%   6.5    0s

Cutting planes:
  Zero half: 8
  Lazy constraints: 34

Explored 28 nodes (291 simplex iterations) in 0.63 seconds
Thread count was 8 (of 8 available processors)

Solution count 2: 350.898 353.284 

Optimal solution found (tolerance 1.00e-04)
Best objective 3.508980740395e+02, best bound 3.508980740395e+02, gap 0.0000%
Changed value of parameter lazyConstraints to 1
   Prev: 0  Min: 0  Max: 1  Default: 0
Optimize a model with 2304 rows, 2256 columns and 6768 nonzeros
Variable types: 0 continuous, 2256 integer (2256 binary)
Coefficient statistics:
  Matrix range     [1e+00, 1e+00]
  Objective range  [6e-01, 5e+01]
  Bounds range     [1e+00, 1e+00]
  RHS range        [2e+00, 2e+00]
Presolve removed 2256 rows and 1128 columns
Presolve time: 0.00s
Presolved: 48 rows, 1128 columns, 2256 nonzeros
Variable types: 0 continuous, 1128 integer (1128 binary)

Root relaxation: objective 3.223715e+02, 72 iterations, 0.00 seconds

    Nodes    |    Current Node    |     Objective Bounds      |     Work
 Expl Unexpl |  Obj  Depth IntInf | Incumbent    BestBd   Gap | It/Node Time

     0     0  322.37153    0   12          -  322.37153      -     -    0s
     0     0  326.22035    0   18          -  326.22035      -     -    0s
     0     0  331.56424    0   16          -  331.56424      -     -    0s
     0     0  332.99363    0   37          -  332.99363      -     -    0s
     0     0  333.37575    0   10          -  333.37575      -     -    0s
     0     0  333.64369    0   27          -  333.64369      -     -    0s
     0     2  341.87663    0   15          -  341.87663      -     -    0s
*   21     2               4     353.2844080  344.15644  2.58%   5.7    0s
*   24     2               3     350.8980740  346.20617  1.34%   6.5    0s

Cutting planes:
  Zero half: 8
  Lazy constraints: 34

Explored 28 nodes (291 simplex iterations) in 0.25 seconds
Thread count was 8 (of 8 available processors)

Solution count 2: 350.898 353.284 

Optimal solution found (tolerance 1.00e-04)
Best objective 3.508980740395e+02, best bound 3.508980740395e+02, gap 0.0000%

Gurobi 8.1.1 (win64, Python) logging started 12/16/20 18:00:46

Academic license - for non-commercial use only
Changed value of parameter lazyConstraints to 1
   Prev: 0  Min: 0  Max: 1  Default: 0
Optimize a model with 2304 rows, 2256 columns and 6768 nonzeros
Variable types: 0 continuous, 2256 integer (2256 binary)
Coefficient statistics:
  Matrix range     [1e+00, 1e+00]
  Objective range  [6e-01, 5e+01]
  Bounds range     [1e+00, 1e+00]
  RHS range        [2e+00, 2e+00]
Presolve removed 2256 rows and 1128 columns
Presolve time: 0.01s
Presolved: 48 rows, 1128 columns, 2256 nonzeros
Variable types: 0 continuous, 1128 integer (1128 binary)

Root relaxation: objective 3.223715e+02, 72 iterations, 0.00 seconds

    Nodes    |    Current Node    |     Objective Bounds      |     Work
 Expl Unexpl |  Obj  Depth IntInf | Incumbent    BestBd   Gap | It/Node Time

     0     0  322.37153    0   12          -  322.37153      -     -    0s
     0     0  326.22035    0   18          -  326.22035      -     -    0s
     0     0  331.56424    0   16          -  331.56424      -     -    0s
     0     0  332.99363    0   37          -  332.99363      -     -    0s
     0     0  333.37575    0   10          -  333.37575      -     -    0s
     0     0  333.64369    0   27          -  333.64369      -     -    0s
     0     2  341.87663    0   15          -  341.87663      -     -    0s
*   21     2               4     353.2844080  344.15644  2.58%   5.7    0s
*   24     2               3     350.8980740  346.20617  1.34%   6.5    0s

Cutting planes:
  Zero half: 8
  Lazy constraints: 34

Explored 28 nodes (291 simplex iterations) in 0.46 seconds
Thread count was 8 (of 8 available processors)

Solution count 2: 350.898 353.284 

Optimal solution found (tolerance 1.00e-04)
Best objective 3.508980740395e+02, best bound 3.508980740395e+02, gap 0.0000%
